463,564
644,643
737,761
681,466
596,433
532,112
570,64
681,256
736,235
1080,535
1001,569
839,188
956,131
945,42
597,-127
570,64
363,88
532,112
474,374
411,406
596,433
660,385
708,321
839,188
817,139
207,481
494,501
690,347
709,229
737,51
690,347
622,397
548,338
554,533
598,662
554,533
307,596
597,939
787,460
1166,563
956,131
801,36
817,139
736,235
644,643
1001,569
829,429
639,140
708,321
660,385
468,514
463,564
494,501
681,466
